(set-info :smt-lib-version 2.6)
(set-logic LIA)
(set-info
  :source |
 Generated by PSyCO 0.1
 More info in N. P. Lopes and J. Monteiro. Weakest Precondition Synthesis for
 Compiler Optimizations, VMCAI'14.
|)
(set-info :category "industrial")
(set-info :status sat)
(declare-fun W_S2_V1 () Bool)
(declare-fun W_S2_V3 () Bool)
(declare-fun W_S2_V2 () Bool)
(declare-fun W_S2_V5 () Bool)
(declare-fun W_S1_V1 () Bool)
(declare-fun W_S1_V2 () Bool)
(declare-fun W_S1_V5 () Bool)
(declare-fun W_S1_V4 () Bool)
(declare-fun R_S1_V1 () Bool)
(declare-fun R_S1_V3 () Bool)
(declare-fun R_S1_V2 () Bool)
(declare-fun R_S1_V5 () Bool)
(declare-fun R_S1_V4 () Bool)
(declare-fun R_S2_V1 () Bool)
(declare-fun R_S2_V3 () Bool)
(declare-fun R_S2_V2 () Bool)
(declare-fun R_S2_V5 () Bool)
(declare-fun R_S2_V4 () Bool)
(declare-fun DISJ_W_S2_R_S2 () Bool)
(declare-fun DISJ_W_S2_R_S1 () Bool)
(declare-fun DISJ_W_S1_W_S2 () Bool)
(declare-fun DISJ_W_S1_R_S2 () Bool)
(declare-fun DISJ_W_S1_R_S1 () Bool)
(declare-fun W_S2_V4 () Bool)
(declare-fun W_S1_V3 () Bool)
(assert
 (let
 (($x1841
   (forall
    ((V4_0 Int) (V5_0 Int) 
     (V2_0 Int) (V3_0 Int) 
     (V1_0 Int) (MW_S1_V4 Bool) 
     (MW_S1_V5 Bool) (MW_S1_V2 Bool) 
     (MW_S1_V3 Bool) (MW_S1_V1 Bool) 
     (MW_S2_V4 Bool) (MW_S2_V5 Bool) 
     (MW_S2_V2 Bool) (MW_S2_V3 Bool) 
     (MW_S2_V1 Bool) (S1_V4_!160 Int) 
     (S1_V4_!170 Int) (S1_V4_!180 Int) 
     (S2_V4_!165 Int) (S2_V4_!175 Int) 
     (S2_V4_!185 Int) (S2_V5_!166 Int) 
     (S2_V5_!176 Int) (S2_V5_!186 Int) 
     (S1_V1_!164 Int) (S1_V1_!174 Int) 
     (S1_V1_!184 Int) (S1_V3_!163 Int) 
     (S1_V3_!173 Int) (S1_V3_!183 Int) 
     (S1_V2_!162 Int) (S1_V2_!172 Int) 
     (S1_V2_!182 Int) (S2_V1_!169 Int) 
     (S2_V1_!179 Int) (S2_V1_!189 Int) 
     (S2_V2_!167 Int) (S2_V2_!177 Int) 
     (S2_V2_!187 Int) (S2_V3_!168 Int) 
     (S2_V3_!178 Int) (S2_V3_!188 Int) 
     (S1_V5_!161 Int) (S1_V5_!171 Int) 
     (S1_V5_!181 Int))
    (let
    ((?x1583
      (ite MW_S1_V1 S1_V1_!184
      (+ 1 (ite MW_S2_V1 S2_V1_!179 (ite MW_S1_V1 S1_V1_!174 V1_0))))))
    (let
    (($x1595
      (= (ite MW_S2_V3 S2_V3_!168 (ite MW_S1_V3 S1_V3_!163 V3_0))
      (ite MW_S2_V3 S2_V3_!188
      (ite MW_S1_V3 S1_V3_!183
      (ite MW_S2_V3 S2_V3_!178 (ite MW_S1_V3 S1_V3_!173 V3_0)))))))
    (let
    (($x1602
      (= (ite MW_S2_V2 S2_V2_!167 (ite MW_S1_V2 S1_V2_!162 V2_0))
      (ite MW_S2_V2 S2_V2_!187
      (ite MW_S1_V2 S1_V2_!182
      (ite MW_S2_V2 S2_V2_!177 (ite MW_S1_V2 S1_V2_!172 V2_0)))))))
    (let
    (($x1609
      (= (ite MW_S2_V5 S2_V5_!166 (ite MW_S1_V5 S1_V5_!161 V5_0))
      (ite MW_S2_V5 S2_V5_!186
      (ite MW_S1_V5 S1_V5_!181
      (ite MW_S2_V5 S2_V5_!176 (ite MW_S1_V5 S1_V5_!171 V5_0)))))))
    (let
    (($x1616
      (= (ite MW_S2_V4 S2_V4_!165 (ite MW_S1_V4 S1_V4_!160 V4_0))
      (ite MW_S2_V4 S2_V4_!185
      (ite MW_S1_V4 S1_V4_!180
      (ite MW_S2_V4 S2_V4_!175 (ite MW_S1_V4 S1_V4_!170 V4_0)))))))
    (let
    (($x1834
      (and $x1616 $x1609 $x1602 $x1595
      (= (ite MW_S2_V1 S2_V1_!169 (ite MW_S1_V1 S1_V1_!164 V1_0))
      (ite MW_S2_V1 S2_V1_!189 ?x1583)))))
    (let
    (($x1619
      (>= ?x1583
      (+ (- 1)
      (ite MW_S1_V2 S1_V2_!182
      (ite MW_S2_V2 S2_V2_!177 (ite MW_S1_V2 S1_V2_!172 V2_0)))))))
    (let
    (($x1624
      (>= (ite MW_S2_V1 S2_V1_!169 (ite MW_S1_V1 S1_V1_!164 V1_0))
      (+ (- 1) (ite MW_S2_V2 S2_V2_!167 (ite MW_S1_V2 S1_V2_!162 V2_0))))))
    (let
    (($x1627
      (and (not (<= V2_0 V1_0)) $x1624
      (not
      (<= (ite MW_S1_V2 S1_V2_!172 V2_0)
      (+ 1 (ite MW_S1_V1 S1_V1_!174 V1_0)))) $x1619)))
    (let (($x166 (not R_S1_V1)))
    (let
    (($x1663
      (and
      (or (not R_S1_V4)
      (= (ite MW_S2_V4 S2_V4_!175 (ite MW_S1_V4 S1_V4_!170 V4_0)) V4_0))
      (or (not R_S1_V5)
      (= (ite MW_S2_V5 S2_V5_!176 (ite MW_S1_V5 S1_V5_!171 V5_0)) V5_0))
      (or (not R_S1_V2)
      (= (ite MW_S2_V2 S2_V2_!177 (ite MW_S1_V2 S1_V2_!172 V2_0)) V2_0))
      (or (not R_S1_V3)
      (= (ite MW_S2_V3 S2_V3_!178 (ite MW_S1_V3 S1_V3_!173 V3_0)) V3_0))
      (or $x166
      (= (ite MW_S2_V1 S2_V1_!179 (ite MW_S1_V1 S1_V1_!174 V1_0))
      (+ (- 1) V1_0))))))
    (let (($x1664 (not $x1663)))
    (let
    (($x1677
      (and
      (or (not R_S1_V4)
      (= V4_0 (ite MW_S2_V4 S2_V4_!175 (ite MW_S1_V4 S1_V4_!170 V4_0))))
      (or (not R_S1_V5)
      (= V5_0 (ite MW_S2_V5 S2_V5_!176 (ite MW_S1_V5 S1_V5_!171 V5_0))))
      (or (not R_S1_V2)
      (= V2_0 (ite MW_S2_V2 S2_V2_!177 (ite MW_S1_V2 S1_V2_!172 V2_0))))
      (or (not R_S1_V3)
      (= V3_0 (ite MW_S2_V3 S2_V3_!178 (ite MW_S1_V3 S1_V3_!173 V3_0))))
      (or $x166
      (= V1_0 (+ 1 (ite MW_S2_V1 S2_V1_!179 (ite MW_S1_V1 S1_V1_!174 V1_0))))))))
    (let (($x1678 (not $x1677)))
    (let ((?x1593 (ite MW_S1_V3 S1_V3_!163 V3_0)))
    (let ((?x1589 (ite MW_S1_V3 S1_V3_!173 V3_0)))
    (let ((?x1590 (ite MW_S2_V3 S2_V3_!178 ?x1589)))
    (let ((?x1591 (ite MW_S1_V3 S1_V3_!183 ?x1590)))
    (let (($x177 (not R_S2_V3)))
    (let ((?x1600 (ite MW_S1_V2 S1_V2_!162 V2_0)))
    (let ((?x1596 (ite MW_S1_V2 S1_V2_!172 V2_0)))
    (let ((?x1597 (ite MW_S2_V2 S2_V2_!177 ?x1596)))
    (let ((?x1598 (ite MW_S1_V2 S1_V2_!182 ?x1597)))
    (let (($x175 (not R_S2_V2)))
    (let ((?x1607 (ite MW_S1_V5 S1_V5_!161 V5_0)))
    (let ((?x1603 (ite MW_S1_V5 S1_V5_!171 V5_0)))
    (let ((?x1604 (ite MW_S2_V5 S2_V5_!176 ?x1603)))
    (let ((?x1605 (ite MW_S1_V5 S1_V5_!181 ?x1604)))
    (let (($x173 (not R_S2_V5)))
    (let ((?x1614 (ite MW_S1_V4 S1_V4_!160 V4_0)))
    (let ((?x1610 (ite MW_S1_V4 S1_V4_!170 V4_0)))
    (let ((?x1611 (ite MW_S2_V4 S2_V4_!175 ?x1610)))
    (let ((?x1612 (ite MW_S1_V4 S1_V4_!180 ?x1611)))
    (let (($x171 (not R_S2_V4)))
    (let
    (($x1813
      (and (or $x171 (= ?x1612 ?x1614)) 
      (or $x173 (= ?x1605 ?x1607)) 
      (or $x175 (= ?x1598 ?x1600)) 
      (or $x177 (= ?x1591 ?x1593))
      (or (not R_S2_V1) (= ?x1583 (ite MW_S1_V1 S1_V1_!164 V1_0))))))
    (let (($x1814 (not $x1813)))
    (let
    (($x1426
      (and (or $x171 (= ?x1610 ?x1612)) 
      (or $x173 (= ?x1603 ?x1605)) 
      (or $x175 (= ?x1596 ?x1598)) 
      (or $x177 (= ?x1589 ?x1591))
      (or (not R_S2_V1) (= (ite MW_S1_V1 S1_V1_!174 V1_0) ?x1583)))))
    (let
    (($x1722
      (and (or $x171 (= ?x1610 ?x1614)) 
      (or $x173 (= ?x1603 ?x1607)) 
      (or $x175 (= ?x1596 ?x1600)) 
      (or $x177 (= ?x1589 ?x1593))
      (or (not R_S2_V1)
      (= (ite MW_S1_V1 S1_V1_!174 V1_0) (ite MW_S1_V1 S1_V1_!164 V1_0))))))
    (let (($x1723 (not $x1722)))
    (let
    (($x1823
      (and (or $x171 (= ?x1612 ?x1610)) 
      (or $x173 (= ?x1605 ?x1603)) 
      (or $x175 (= ?x1598 ?x1596)) 
      (or $x177 (= ?x1591 ?x1589))
      (or (not R_S2_V1) (= ?x1583 (ite MW_S1_V1 S1_V1_!174 V1_0))))))
    (let (($x1824 (not $x1823)))
    (let
    (($x1818
      (and (or $x171 (= ?x1614 ?x1612)) 
      (or $x173 (= ?x1607 ?x1605)) 
      (or $x175 (= ?x1600 ?x1598)) 
      (or $x177 (= ?x1593 ?x1591))
      (or (not R_S2_V1) (= (ite MW_S1_V1 S1_V1_!164 V1_0) ?x1583)))))
    (let
    (($x1770
      (and (or $x171 (= ?x1614 ?x1610)) 
      (or $x173 (= ?x1607 ?x1603)) 
      (or $x175 (= ?x1600 ?x1596)) 
      (or $x177 (= ?x1593 ?x1589))
      (or (not R_S2_V1)
      (= (ite MW_S1_V1 S1_V1_!164 V1_0) (ite MW_S1_V1 S1_V1_!174 V1_0))))))
    (let
    (($x1838
      (and (= S1_V4_!160 S1_V4_!170) 
      (or $x1678 (= S1_V4_!160 S1_V4_!180))
      (or $x1678 (= S1_V4_!170 S1_V4_!180))
      (or $x1723 (= S2_V4_!175 S2_V4_!165))
      (or (not $x1426) (= S2_V4_!175 S2_V4_!185))
      (or $x1814 (= S2_V4_!185 S2_V4_!165))
      (or (not $x1770) (= S2_V5_!166 S2_V5_!176))
      (or (not $x1818) (= S2_V5_!166 S2_V5_!186))
      (or $x1824 (= S2_V5_!186 S2_V5_!176)) 
      (= S1_V1_!164 S1_V1_!174) 
      (or $x1664 (= S1_V1_!184 S1_V1_!164))
      (or $x1664 (= S1_V1_!184 S1_V1_!174)) 
      (= S1_V3_!163 S1_V3_!173) 
      (or $x1678 (= S1_V3_!163 S1_V3_!183))
      (or $x1678 (= S1_V3_!173 S1_V3_!183)) 
      (= S1_V2_!162 S1_V2_!172) 
      (or $x1678 (= S1_V2_!162 S1_V2_!182))
      (or $x1678 (= S1_V2_!172 S1_V2_!182))
      (or (not $x1770) (= S2_V1_!169 S2_V1_!179))
      (or (not $x1818) (= S2_V1_!169 S2_V1_!189))
      (or $x1824 (= S2_V1_!189 S2_V1_!179))
      (or $x1723 (= S2_V2_!177 S2_V2_!167))
      (or $x1814 (= S2_V2_!187 S2_V2_!167))
      (or $x1824 (= S2_V2_!187 S2_V2_!177))
      (or $x1723 (= S2_V3_!178 S2_V3_!168))
      (or (not $x1426) (= S2_V3_!178 S2_V3_!188))
      (or $x1814 (= S2_V3_!188 S2_V3_!168)) 
      (= S1_V5_!161 S1_V5_!171) 
      (or $x1678 (= S1_V5_!161 S1_V5_!181))
      (or $x1664 (= S1_V5_!181 S1_V5_!171)) 
      (or (not MW_S1_V4) W_S1_V4) 
      (or (not MW_S1_V5) W_S1_V5) 
      (or (not MW_S1_V2) W_S1_V2) 
      (or (not MW_S1_V1) W_S1_V1) 
      (or (not MW_S2_V5) W_S2_V5) 
      (or (not MW_S2_V2) W_S2_V2) 
      (or (not MW_S2_V3) W_S2_V3) 
      (or (not MW_S2_V1) W_S2_V1)))) 
    (or (not $x1838) (not $x1627) $x1834))))))))))))))))))))))))))))))))))))))))))))))))
 (let
 (($x87
   (or R_S2_V4 (and W_S2_V5 R_S2_V5) 
   (and W_S2_V2 R_S2_V2) (and W_S2_V3 R_S2_V3) 
   (and W_S2_V1 R_S2_V1))))
 (let (($x89 (= DISJ_W_S2_R_S2 (not $x87))))
 (let
 (($x84
   (or R_S1_V4 (and W_S2_V5 R_S1_V5) 
   (and W_S2_V2 R_S1_V2) (and W_S2_V3 R_S1_V3) 
   (and W_S2_V1 R_S1_V1))))
 (let (($x86 (= DISJ_W_S2_R_S1 (not $x84))))
 (let
 (($x81
   (or W_S1_V4 (and W_S1_V5 W_S2_V5) 
   (and W_S1_V2 W_S2_V2) W_S2_V3 
   (and W_S1_V1 W_S2_V1))))
 (let (($x83 (= DISJ_W_S1_W_S2 (not $x81))))
 (let
 (($x78
   (or (and W_S1_V4 R_S2_V4) 
   (and W_S1_V5 R_S2_V5) (and W_S1_V2 R_S2_V2) R_S2_V3 
   (and W_S1_V1 R_S2_V1))))
 (let (($x80 (= DISJ_W_S1_R_S2 (not $x78))))
 (let
 (($x75
   (or (and W_S1_V4 R_S1_V4) 
   (and W_S1_V5 R_S1_V5) (and W_S1_V2 R_S1_V2) R_S1_V3 
   (and W_S1_V1 R_S1_V1))))
 (let (($x77 (= DISJ_W_S1_R_S1 (not $x75))))
 (and W_S1_V3 W_S2_V4 $x77 $x80 $x83 $x86 $x89 $x1841)))))))))))))
(check-sat)
(exit)

